(set-info :source  loris-7.ddns.comp.nus.edu.sg/~project/hip/) 
;Variables declarations
(declare-fun nr_5388 () Int)
(declare-fun bhr_5389 () Int)
(declare-fun nr_5449 () Int)
(declare-fun nl_5446 () Int)
(declare-fun r_5448 () Int)
(declare-fun l_5445 () Int)
(declare-fun c_primed () Int)
(declare-fun b_primed () Int)
(declare-fun flted_21_5373 () Int)
(declare-fun nb () Int)
(declare-fun b () Int)
(declare-fun flted_21_5372 () Int)
(declare-fun nc () Int)
(declare-fun c () Int)
(declare-fun bhl_5447 () Int)
(declare-fun bhr_5450 () Int)
(declare-fun l_5384 () Int)
(declare-fun a_primed () Int)
(declare-fun flted_21_5374 () Int)
(declare-fun bha () Int)
(declare-fun na () Int)
(declare-fun a () Int)
;Relations declarations
;Axioms assertions
;Antecedent
(assert (= nr_5388 (+ (+ nr_5449 1) nl_5446)))
(assert (= bhl_5447 bhr_5389))
(assert (= bhr_5450 bhr_5389))
(assert (= bhr_5450 bhl_5447))
(assert (= nr_5449 nc))
(assert (= nl_5446 nb))
(assert (= r_5448 c_primed))
(assert (= l_5445 b_primed))
(assert (= flted_21_5372 0))
(assert (= flted_21_5373 0))
(assert (= c_primed c))
(assert (= b_primed b))
(assert (or (and (and (and (= flted_21_5373 0) (<= 2 bha)) (<= 1 nb)) (> b 0)) (or (and (and (and (< b 1) (= nb 0)) (= bha 1)) (= flted_21_5373 0)) (and (and (and (= flted_21_5373 1) (<= 1 bha)) (<= 1 nb)) (> b 0)))))
(assert (or (and (and (and (= flted_21_5372 0) (<= 2 bha)) (<= 1 nc)) (> c 0)) (or (and (and (and (< c 1) (= nc 0)) (= bha 1)) (= flted_21_5372 0)) (and (and (and (= flted_21_5372 1) (<= 1 bha)) (<= 1 nc)) (> c 0)))))
(assert (= flted_21_5374 1))
(assert (= bhl_5447 bha))
(assert (= bhr_5450 bha))
(assert (= a_primed a))
(assert (= l_5384 a_primed))
(assert (or (and (and (and (= flted_21_5374 0) (<= 2 bha)) (<= 1 na)) (> a 0)) (or (and (and (and (< a 1) (= na 0)) (= bha 1)) (= flted_21_5374 0)) (and (and (and (= flted_21_5374 1) (<= 1 bha)) (<= 1 na)) (> a 0)))))
;Negation of Consequence
(assert (not (or (= na 0) (< a 1))))
(check-sat)